&CONTROL
  calculation = 'scf' ,
  restart_mode = 'from_scratch' ,
  prefix = 'h3sfit',
  wf_collect = .true. ,
  pseudo_dir = '~/pseudo' ,
  outdir = './' ,
  verbosity = 'high' ,
  nstep = 5000 ,
  tprnfor = .true.
  tstress = .true.
  etot_conv_thr = 0.0001 ,
  forc_conv_thr = 0.001 ,
/
&SYSTEM
  ibrav = 0 ,
  celldm(1) = 5.63894 ,
  nat = 8 ,
  ntyp = 2 ,
  occupations = 'smearing' ,
  smearing = 'methfessel-paxton' ,
  degauss = 0.03 ,
  ecutwfc = 100 ,
  ecutrho = 350,
/
&ELECTRONS
  diagonalization = 'cg' ,
  electron_maxstep = 2000 ,
  conv_thr = 1e-08 ,
/
 
ATOMIC_SPECIES
  S   32.065 S.pbe-mt_fhi.UPF
  H   1.0079 H.pbe-mt_fhi.UPF

ATOMIC_POSITIONS crystal
 S  0.0000 0.0000 0.0000
 S  0.5000 0.5000 0.5000
 H  0.5000 0.0000 0.0000
 H  0.0000 0.5000 0.0000
 H  0.5000 0.5000 0.0000
 H  0.0000 0.0000 0.5000
 H  0.5000 0.0000 0.5000
 H  0.0000 0.5000 0.5000

K_POINTS (automatic)
 2 2 2 0 0 0

CELL_PARAMETERS alat
 1.00 0.00 0.00 
 0.00 1.00 0.00
 0.00 0.00 1.00
